letting n =  10
letting blocks =  [[1, 5], [1, 9], [1, 10], [2, 1], [3, 1], [3, 6], [4, 6], [5, 2], [5, 4], [5, 6], [5, 7], [6, 2], [6, 3], [6, 7], [7, 1], [7, 8], [8, 6], [8, 7], [8, 8], [8, 9], [9, 6], [9, 8], [9, 9], [10, 1], [10, 3], [10, 5]]
